5000 100
72 85 63 91 54 78 66 88 47 95 58 74 81 69 52 99 43 77 61 84 56 92 48 71 87 64 53 96 45 79 68 83 57 94 49 76 62 89 55 97 44 73 86 59 93 51 75 67 82 46 70 90 60 98 42 80 65 87 50 96 58 72 84 54 91 47 77 63 88 56 95 45 79 61 92 53 74 68 85 49 97 52 81 66 89 43 93 57 76 64 90 48 83 55 94 51 78 62 86 46
45 65 35 80 30 55 40 70 25 90 32 50 60 42 28 95 22 58 38 68 34 85 26 48 72 39 29 92 24 56 43 67 31 87 27 53 41 74 33 98 21 46 69 36 83 30 52 44 64 23 47 76 37 91 20 59 42 71 28 94 34 51 66 31 82 25 57 39 73 32 89 24 54 41 86 29 50 45 68 26 97 30 62 43 75 22 84 35 56 40 78 27 65 33 93 28 53 38 70 23